80 6597966
55 72 77 56 1 65 73 78 13 22 70 62 48 64 24 17 31 10 44 76 54 45 67 16 40 47 66 63 79 0 23 42
4 5 29 38 61 53 74 11 14 9 71 36 57 19 15 59 39 28 51 50 60 21 26 52 32 41 2 25 33 6 34 75 3 20
7 37 8 12 30 46 27 43 69 18 68 49 58 35
